NAME: us_cities
TYPE: TSP
COMMENT: 20 cities in US (Groetschel)
DIMENSION: 20
NODE_COORD_SECTION
1 40.72 -74.00
2 39.95 -75.17
3 39.28 -76.62
4 35.23 -80.85
5 35.12 -89.97
6 30.32 -81.70
7 229.77 -95.38
8 30.27 -97.77
9 29.53 -98.47
10 32.75 -97.33
11 32.78 -96.80
12 32.78 -117.15
13 34.05 -118.25
14 37.30 -121.87
15 37.78 -122.42
16 39.78 -86.15
17 33.45 -112.07
18 39.98 -82.98
19 41.88 -87.63
20 42.33 -83.05
EOF